solution status: optimal solution found
objective value:                     111052.552336724
d11(0,0)                                            1 	(obj:0)
d11(1,1)                                            1 	(obj:0)
d11(1,2)                                            1 	(obj:0)
d11(2,3)                                            1 	(obj:0)
d11(2,4)                                            1 	(obj:0)
d11(2,5)                                            1 	(obj:0)
d11(3,7)                                            1 	(obj:0)
d11(3,9)                                            1 	(obj:0)
d11(3,11)                                           1 	(obj:0)
d11(3,13)                                           1 	(obj:0)
d12(3,8)                                            1 	(obj:0)
d12(3,10)                                           1 	(obj:0)
d12(3,12)                                           1 	(obj:0)
d12(3,14)                                           1 	(obj:0)
d21(2,3)                                            1 	(obj:0)
d21(3,7)                                            1 	(obj:0)
d21(3,8)                                            1 	(obj:0)
WB(2)                                3315.65537776224 	(obj:0)
y2(3,8)                              1385.48851144896 	(obj:0)
y2(3,10)                             1385.48851144896 	(obj:0)
y2(3,12)                             1385.48851144896 	(obj:0)
y2(3,14)                             1385.48851144896 	(obj:0)
STE(1,1)                             2645.99999999992 	(obj:0)
STE(0,0)                                         4725 	(obj:0)
STE(1,2)                             4304.24989888874 	(obj:0)
STE(2,3)                             609.750101111132 	(obj:0)
STE(2,4)                             2267.99999999995 	(obj:0)
STE(2,5)                             2267.99999999995 	(obj:0)
STE(2,6)                             3926.24989888874 	(obj:0)
STE(3,7)                             231.750101111183 	(obj:0)
STE(3,8)                             1547.96418698765 	(obj:0)
STE(3,9)                                         1890 	(obj:0)
STE(3,10)                            3206.21408587646 	(obj:0)
STE(3,11)                                        1890 	(obj:0)
STE(3,12)                            3206.21408587646 	(obj:0)
STE(3,13)                            3548.24989888874 	(obj:0)
STE(3,14)                            4864.46398476525 	(obj:0)
AVE(2)                               3315.65537776224 	(obj:0)
WB(3)                                3315.65799770399 	(obj:0)
y1(1,1)                              1530.90000000007 	(obj:0)
y1(1,2)                              38.4750910001376 	(obj:0)
y1(2,3)                              1492.42490899991 	(obj:0)
y1(2,5)                              1492.42490899991 	(obj:0)
AVE(3)                               3315.65799770399 	(obj:0)
WG(1)                                3248.33172520918 	(obj:10)
BG(1)                                987.221070709301 	(obj:10)
BG(2)                                4196.29249897959 	(obj:10)
BG(3)                                 2673.4099387755 	(obj:10)
AVE(1)                               3248.33172520918 	(obj:0)
